Start evaluate stage for setting _10000_5_4q_mnl_A600...

Evaluating using MNL with setting tag _10000_5_4q_mnl_A600.
 Results stored at /export/storage_covidvaccine/Result/MNL_partial/M5_K10000_4q/HighSchools/

The number of HighSchools opened: 4635
Set parameter ServerPassword
Set parameter CSQueueTimeout to value 120
Set parameter CSIdleTimeout to value 60
Set parameter ServerTimeout to value 10
Set parameter TokenServer to value "164.67.163.231"
Set parameter MIPFocus to value 3
Set parameter MIPGap to value 0.005
Set parameter TimeLimit to value 21600
Gurobi Optimizer version 10.0.1 build v10.0.1rc0 (linux64)

CPU model: AMD EPYC 7742 64-Core Processor, instruction set [SSE2|AVX|AVX2]
Thread count: 128 physical cores, 256 logical processors, using up to 32 threads

Optimize a model with 85812375 rows, 42903525 columns and 85843346 nonzeros
Model fingerprint: 0x3948fe82
Coefficient statistics:
  Matrix range     [4e-01, 7e+03]
  Objective range  [4e-01, 7e+03]
  Bounds range     [1e+00, 1e+00]
  RHS range        [1e+00, 1e+04]
Presolve removed 694 rows and 0 columns (presolve time = 14s) ...
Presolve removed 85811408 rows and 42867229 columns (presolve time = 23s) ...
Presolve removed 85811408 rows and 42891859 columns (presolve time = 27s) ...
Presolve removed 85811408 rows and 42902558 columns (presolve time = 33s) ...
Presolve removed 85812375 rows and 42903525 columns (presolve time = 37s) ...
Presolve removed 85812375 rows and 42903525 columns
Presolve time: 42.40s
Presolve: All rows and columns removed
Iteration    Objective       Primal Inf.    Dual Inf.      Time
       0    3.4267073e+07   0.000000e+00   0.000000e+00     87s

Solved in 0 iterations and 86.63 seconds (51.24 work units)
Optimal objective  3.426707276e+07
Evaluation finished!

Evaluation with leftover fulfillments...

========================================================================================================================
Start filling the leftover demands to their 2 choice

Total demand fulfilled in previous round 34.26707, with leftover unfulfilled demand: 1.88592;    Resulting in a total of 36.15299, but b/c consideration set, the maximum possible demand in coming round is 1.32979;    Try to fill them with 3667 sites that has leftover capacity 12.08109

Set parameter MIPFocus to value 3
Set parameter MIPGap to value 0.005
Set parameter TimeLimit to value 21600
Gurobi Optimizer version 10.0.1 build v10.0.1rc0 (linux64)

CPU model: AMD EPYC 7742 64-Core Processor, instruction set [SSE2|AVX|AVX2]
Thread count: 128 physical cores, 256 logical processors, using up to 32 threads

Optimize a model with 85812375 rows, 42903525 columns and 85809870 nonzeros
Model fingerprint: 0xfb13feee
Coefficient statistics:
  Matrix range     [8e-02, 8e+03]
  Objective range  [8e-02, 8e+03]
  Bounds range     [1e+00, 1e+00]
  RHS range        [1e+00, 1e+04]
Presolve removed 3832 rows and 0 columns (presolve time = 15s) ...
Presolve removed 85812107 rows and 42900705 columns (presolve time = 24s) ...
Presolve removed 85812107 rows and 42902608 columns (presolve time = 30s) ...
Presolve removed 85812107 rows and 42903257 columns (presolve time = 33s) ...
Presolve removed 85812107 rows and 42903257 columns (presolve time = 36s) ...
Presolve removed 85812375 rows and 42903525 columns (presolve time = 41s) ...
Presolve removed 85812375 rows and 42903525 columns
Presolve time: 46.64s
Presolve: All rows and columns removed
Iteration    Objective       Primal Inf.    Dual Inf.      Time
       0    7.6674503e+05   0.000000e+00   0.000000e+00    100s

Solved in 0 iterations and 100.28 seconds (50.16 work units)
Optimal objective  7.667450251e+05
========================================================================================================================
Start filling the leftover demands to their 3 choice

Total demand fulfilled in previous round 0.76675, with leftover unfulfilled demand: 0.56304;    Resulting in a total of 1.32979, but b/c consideration set, the maximum possible demand in coming round is 0.08801;    Try to fill them with 3351 sites that has leftover capacity 11.31376

Set parameter MIPFocus to value 3
Set parameter MIPGap to value 0.005
Set parameter TimeLimit to value 21600
Gurobi Optimizer version 10.0.1 build v10.0.1rc0 (linux64)

CPU model: AMD EPYC 7742 64-Core Processor, instruction set [SSE2|AVX|AVX2]
Thread count: 128 physical cores, 256 logical processors, using up to 32 threads

Optimize a model with 85812375 rows, 42903525 columns and 85807482 nonzeros
Model fingerprint: 0xf7821698
Coefficient statistics:
  Matrix range     [1e-01, 3e+03]
  Objective range  [1e-01, 3e+03]
  Bounds range     [1e+00, 1e+00]
  RHS range        [1e+00, 1e+04]
Presolve removed 5016 rows and 0 columns (presolve time = 12s) ...
Presolve removed 85812356 rows and 42903093 columns (presolve time = 21s) ...
Presolve removed 85812356 rows and 42903475 columns (presolve time = 25s) ...
Presolve removed 85812356 rows and 42903506 columns (presolve time = 31s) ...
Presolve removed 85812375 rows and 42903525 columns (presolve time = 36s) ...
Presolve removed 85812375 rows and 42903525 columns
Presolve time: 40.58s
Presolve: All rows and columns removed
Iteration    Objective       Primal Inf.    Dual Inf.      Time
       0    7.3515600e+04   0.000000e+00   0.000000e+00     89s

Solved in 0 iterations and 88.60 seconds (50.16 work units)
Optimal objective  7.351559952e+04
Finished evaluate stage for setting _10000_5_4q_mnl_A600!

